Fe24 O32
1.0
        8.5333518982         0.0000000000         0.0000000000
        0.0000000000         8.5333518982         0.0000000000
        0.0000000000         0.0000000000         8.5333518982
   Fe    O
   24   32
Direct
     0.000000000         0.000000000         0.000000000
     0.500000000         0.500000000         0.000000000
     0.250000000         0.250000000         0.250000000
     0.750000000         0.750000000         0.250000000
    -0.000000000         0.500000000         0.500000000
     0.500000000        -0.000000000         0.500000000
     0.250000000         0.750000000         0.750000000
     0.750000000         0.250000000         0.750000000
     0.375000000         0.875000000         0.125000000
     0.125000000         0.625000000         0.125000000
     0.875000000         0.375000000         0.125000000
     0.625000000         0.125000000         0.125000000
     0.875000000         0.125000000         0.375000000
     0.125000000         0.875000000         0.375000000
     0.375000000         0.625000000         0.375000000
     0.625000000         0.375000000         0.375000000
     0.375000000         0.375000000         0.625000000
     0.125000000         0.125000000         0.625000000
     0.875000000         0.875000000         0.625000000
     0.625000000         0.625000000         0.625000000
     0.375000000         0.125000000         0.875000000
     0.875000000         0.625000000         0.875000000
     0.125000000         0.375000000         0.875000000
     0.625000000         0.875000000         0.875000000
     0.129349332         0.870650640         0.129349332
     0.120650668         0.620650640         0.879349360
     0.879349360         0.379349332         0.879349360
     0.129349332         0.629349360         0.370650668
     0.879349360         0.620650640         0.120650668
     0.370650668         0.870650640         0.370650668
     0.120650668         0.379349332         0.120650668
     0.370650668         0.629349360         0.129349332
     0.129349332         0.370650668         0.629349360
     0.120650668         0.120650668         0.379349332
     0.879349360         0.879349360         0.379349332
     0.129349332         0.129349332         0.870650640
     0.879349360         0.120650668         0.620650640
     0.370650668         0.370650668         0.870650640
     0.120650668         0.879349360         0.620650640
     0.370650668         0.129349332         0.629349360
     0.629349360         0.870650640         0.629349360
     0.620650640         0.620650640         0.379349332
     0.379349332         0.379349332         0.379349332
     0.629349360         0.629349360         0.870650640
     0.379349332         0.620650640         0.620650640
     0.870650640         0.870650640         0.870650640
     0.620650640         0.379349332         0.620650640
     0.870650640         0.629349360         0.629349360
     0.629349360         0.370650668         0.129349332
     0.620650640         0.120650668         0.879349360
     0.379349332         0.879349360         0.879349360
     0.629349360         0.129349332         0.370650668
     0.379349332         0.120650668         0.120650668
     0.870650640         0.370650668         0.370650668
     0.620650640         0.879349360         0.120650668
     0.870650640         0.129349332         0.129349332
