Co X  Ni Cu Cr Fe Al O  He
 1.0000000000000000
    51.2001113891999964    0.0000000000000000    0.0000000000000000
     0.0000000000000000   51.2001113891999964    0.0000000000000000
     0.0000000000000000    0.0000000000000000   51.2001113891999964
 Co  X   Ni  Cu  Cr  Fe  Al  O   XO 
 792 576 790 756 735 742 793 6144 768
Direct
  0.3333333333333330  0.3333333333333330  0.0000000000000000
  0.4583333333333330  0.4583333333333330  0.0416666666666670
  0.4791666666666670  0.4374999999999999  0.1458333333333330
  0.3541666666666670  0.3958333333333330  0.1458333333333330
  0.4583333333333330  0.3749999999999999  0.2916666666666670
  0.4791666666666670  0.4791666666666670  0.2708333333333330
  0.3541666666666670  0.3958333333333330  0.3124999999999999
  0.4374999999999999  0.4791666666666670  0.3124999999999999
  0.3958333333333330  0.3541666666666670  0.4791666666666670
  0.4166666666666670  0.3333333333333330  0.5833333333333329
  0.3958333333333330  0.3541666666666670  0.6458333333333328
  0.4374999999999999  0.4791666666666670  0.6458333333333328
  0.4791666666666670  0.3541666666666670  0.7291666666666670
  0.4166666666666670  0.4166666666666670  0.8333333333333329
  0.4583333333333330  0.3749999999999999  0.9583333333333328
  0.3541666666666670  0.4374999999999999  0.8541666666666669
  0.4583333333333330  0.6249999999999999  0.0416666666666670
  0.3958333333333330  0.6458333333333328  0.0208333333333330
  0.4583333333333330  0.6249999999999999  0.2083333333333330
  0.3333333333333330  0.5833333333333329  0.2499999999999999
  0.3541666666666670  0.6041666666666669  0.1874999999999999
  0.3958333333333330  0.5208333333333329  0.3124999999999999
  0.3333333333333330  0.5833333333333329  0.4166666666666670
  0.4374999999999999  0.5625000000000000  0.3958333333333330
  0.3958333333333330  0.5625000000000000  0.4374999999999999
  0.4791666666666670  0.5625000000000000  0.5208333333333329
  0.4791666666666670  0.6041666666666669  0.6458333333333328
  0.4374999999999999  0.6458333333333328  0.6458333333333328
  0.3333333333333330  0.4999999999999999  0.6666666666666667
  0.4583333333333330  0.5416666666666670  0.7916666666666667
  0.4791666666666670  0.5625000000000000  0.6875000000000000
  0.4374999999999999  0.5208333333333329  0.6875000000000000
  0.3958333333333330  0.6041666666666669  0.7291666666666670
  0.4166666666666670  0.5833333333333329  0.8333333333333329
  0.4166666666666670  0.4999999999999999  0.9166666666666667
  0.4583333333333330  0.5416666666666670  0.9583333333333328
  0.3958333333333330  0.6458333333333328  0.8541666666666669
  0.4999999999999999  0.4166666666666670  0.0833333333333330
  0.6041666666666669  0.4791666666666670  0.1458333333333330
  0.6458333333333328  0.3541666666666670  0.2291666666666669
  0.6041666666666669  0.3958333333333330  0.2291666666666669
  0.5208333333333329  0.3541666666666670  0.2708333333333330
  0.6041666666666669  0.4374999999999999  0.2708333333333330
  0.5625000000000000  0.3541666666666670  0.3124999999999999
  0.5208333333333329  0.3958333333333330  0.3124999999999999
  0.6041666666666669  0.4791666666666670  0.3124999999999999
  0.5833333333333329  0.4166666666666670  0.3333333333333330
  0.5416666666666670  0.3749999999999999  0.3749999999999999
  0.4999999999999999  0.4166666666666670  0.4166666666666670
  0.6458333333333328  0.3958333333333330  0.3541666666666670
  0.6041666666666669  0.3541666666666670  0.3541666666666670
  0.5208333333333329  0.4791666666666670  0.3958333333333330
  0.6041666666666669  0.3958333333333330  0.5625000000000000
  0.5833333333333329  0.3333333333333330  0.7499999999999998
  0.6458333333333328  0.3958333333333330  0.6875000000000000
  0.5625000000000000  0.3541666666666670  0.8125000000000000
  0.5416666666666670  0.3749999999999999  0.8749999999999998
  0.6249999999999999  0.4583333333333330  0.8749999999999998
  0.5416666666666670  0.5416666666666670  0.0416666666666670
  0.6041666666666669  0.5625000000000000  0.0625000000000000
  0.4999999999999999  0.4999999999999999  0.1666666666666670
  0.5625000000000000  0.6458333333333328  0.1874999999999999
  0.5625000000000000  0.6041666666666669  0.2291666666666669
  0.5208333333333329  0.5208333333333329  0.2708333333333330
  0.6458333333333328  0.6041666666666669  0.3124999999999999
  0.5416666666666670  0.5416666666666670  0.3749999999999999
  0.6249999999999999  0.6249999999999999  0.3749999999999999
  0.6249999999999999  0.5416666666666670  0.4583333333333330
  0.4999999999999999  0.4999999999999999  0.4999999999999999
  0.6458333333333328  0.6458333333333328  0.6041666666666669
  0.5208333333333329  0.5625000000000000  0.6458333333333328
  0.4999999999999999  0.5833333333333329  0.7499999999999998
  0.6458333333333328  0.5625000000000000  0.6875000000000000
  0.5625000000000000  0.6041666666666669  0.7291666666666670
  0.6041666666666669  0.5625000000000000  0.7291666666666670
  0.6458333333333328  0.6458333333333328  0.7708333333333328
  0.5208333333333329  0.6458333333333328  0.8958333333333330
  0.6041666666666669  0.6458333333333328  0.9791666666666669
  0.0833333333333330  0.2499999999999999  0.0000000000000000
  0.1041666666666670  0.1874999999999999  0.1874999999999999
  0.1458333333333330  0.2291666666666669  0.3541666666666670
  0.0416666666666670  0.2083333333333330  0.7083333333333329
  0.0000000000000000  0.4166666666666670  0.2499999999999999
  0.0625000000000000  0.4791666666666670  0.5208333333333329
  0.0000000000000000  0.4999999999999999  0.0000000000000000
  0.1250000000000000  0.5416666666666670  0.2916666666666670
  0.1250000000000000  0.5416666666666670  0.9583333333333328
  0.0208333333333330  0.7708333333333328  0.0208333333333330
  0.1041666666666670  0.7708333333333328  0.1041666666666670
  0.0208333333333330  0.6875000000000000  0.2708333333333330
  0.1041666666666670  0.7291666666666670  0.7291666666666670
  0.1041666666666670  0.8125000000000000  0.9791666666666669
  0.0000000000000000  0.9166666666666667  0.4166666666666670
  0.1458333333333330  0.9791666666666669  0.4374999999999999
  0.2916666666666670  0.0416666666666670  0.1250000000000000
  0.1874999999999999  0.1041666666666670  0.3541666666666670
  0.2708333333333330  0.0208333333333330  0.3541666666666670
  0.2291666666666669  0.0208333333333330  0.4791666666666670
  0.2291666666666669  0.1874999999999999  0.1458333333333330
  0.2291666666666669  0.2291666666666669  0.6041666666666669
  0.2083333333333330  0.4583333333333330  0.6249999999999999
  0.2708333333333330  0.6041666666666669  0.6041666666666669
  0.2708333333333330  0.5625000000000000  0.8958333333333330
  0.2083333333333330  0.9583333333333328  0.1250000000000000
  0.2291666666666669  0.8958333333333330  0.1041666666666670
  0.2291666666666669  0.9791666666666669  0.1874999999999999
  0.4791666666666670  0.1458333333333330  0.2708333333333330
  0.4374999999999999  0.1041666666666670  0.2708333333333330
  0.4374999999999999  0.1041666666666670  0.7708333333333328
  0.3749999999999999  0.1250000000000000  0.9583333333333328
  0.4374999999999999  0.8125000000000000  0.3124999999999999
  0.4374999999999999  0.8125000000000000  0.4791666666666670
  0.4374999999999999  0.8125000000000000  0.6458333333333328
  0.3958333333333330  0.8125000000000000  0.8541666666666669
  0.4791666666666670  0.8541666666666669  0.2291666666666669
  0.3541666666666670  0.8958333333333330  0.6458333333333328
  0.3333333333333330  0.8333333333333329  0.6666666666666667
  0.5625000000000000  0.1458333333333330  0.3541666666666670
  0.5416666666666670  0.0416666666666670  0.5416666666666670
  0.5416666666666670  0.1250000000000000  0.7916666666666667
  0.5416666666666670  0.1250000000000000  0.9583333333333328
  0.6041666666666669  0.1874999999999999  0.3541666666666670
  0.6041666666666669  0.1874999999999999  0.6875000000000000
  0.5208333333333329  0.1874999999999999  0.7708333333333328
  0.5625000000000000  0.7291666666666670  0.4374999999999999
  0.6458333333333328  0.7291666666666670  0.6875000000000000
  0.6041666666666669  0.6875000000000000  0.8541666666666669
  0.5625000000000000  0.8958333333333330  0.1041666666666670
  0.6249999999999999  0.9583333333333328  0.2083333333333330
  0.5208333333333329  0.8958333333333330  0.9791666666666669
  0.7083333333333329  0.1250000000000000  0.6249999999999999
  0.6666666666666667  0.0000000000000000  0.8333333333333329
  0.7708333333333328  0.0625000000000000  0.8958333333333330
  0.6875000000000000  0.1874999999999999  0.2708333333333330
  0.7708333333333328  0.1874999999999999  0.5208333333333329
  0.6875000000000000  0.3958333333333330  0.1458333333333330
  0.7708333333333328  0.3958333333333330  0.2291666666666669
  0.7291666666666670  0.3541666666666670  0.4791666666666670
  0.7916666666666667  0.6249999999999999  0.0416666666666670
  0.6875000000000000  0.5625000000000000  0.1458333333333330
  0.7708333333333328  0.6458333333333328  0.1458333333333330
  0.6666666666666667  0.5833333333333329  0.2499999999999999
  0.7916666666666667  0.5416666666666670  0.4583333333333330
  0.6875000000000000  0.6041666666666669  0.3541666666666670
  0.7291666666666670  0.6041666666666669  0.3958333333333330
  0.7708333333333328  0.5625000000000000  0.8958333333333330
  0.6666666666666667  0.7499999999999998  0.2499999999999999
  0.7708333333333328  0.7291666666666670  0.2291666666666669
  0.7291666666666670  0.8125000000000000  0.3541666666666670
  0.6666666666666667  0.7499999999999998  0.9166666666666667
  0.9166666666666667  0.0833333333333330  0.1666666666666670
  0.9791666666666669  0.0208333333333330  0.3958333333333330
  0.8541666666666669  0.0208333333333330  0.4374999999999999
  0.9375000000000000  0.0625000000000000  0.8958333333333330
  0.9791666666666669  0.2708333333333330  0.1458333333333330
  0.9375000000000000  0.3124999999999999  0.4791666666666670
  0.9375000000000000  0.3124999999999999  0.8125000000000000
  0.9166666666666667  0.4166666666666670  0.1666666666666670
  0.9791666666666669  0.3541666666666670  0.3958333333333330
  0.9791666666666669  0.4374999999999999  0.6458333333333328
  0.8958333333333330  0.3958333333333330  0.7708333333333328
  0.8749999999999998  0.6249999999999999  0.1250000000000000
  0.8333333333333329  0.5833333333333329  0.9166666666666667
  0.8333333333333329  0.6666666666666667  0.0000000000000000
  0.9791666666666669  0.8125000000000000  0.9375000000000000
  0.8958333333333330  0.8958333333333330  0.2708333333333330
  0.9375000000000000  0.8541666666666669  0.6875000000000000
  0.8541666666666669  0.9791666666666669  0.7291666666666670
  0.0416666666666670  0.1250000000000000  0.4583333333333330
  0.0625000000000000  0.1458333333333330  0.3541666666666670
  0.1041666666666670  0.1041666666666670  0.7708333333333328
  0.0208333333333330  0.3124999999999999  0.5625000000000000
  0.0208333333333330  0.3541666666666670  0.7708333333333328
  0.0208333333333330  0.4374999999999999  0.8541666666666669
  0.0625000000000000  0.4374999999999999  0.8958333333333330
  0.0625000000000000  0.5625000000000000  0.1041666666666670
  0.0833333333333330  0.5833333333333329  0.8333333333333329
  0.0000000000000000  0.6666666666666667  0.4999999999999999
  0.0416666666666670  0.9583333333333328  0.7916666666666667
  0.1250000000000000  0.8749999999999998  0.9583333333333328
  0.2499999999999999  0.0833333333333330  0.3333333333333330
  0.3124999999999999  0.1458333333333330  0.4374999999999999
  0.2499999999999999  0.0000000000000000  0.7499999999999998
  0.2499999999999999  0.0833333333333330  0.8333333333333329
  0.2083333333333330  0.2083333333333330  0.5416666666666670
  0.2708333333333330  0.1874999999999999  0.6875000000000000
  0.3124999999999999  0.4791666666666670  0.2708333333333330
  0.1666666666666670  0.3333333333333330  0.6666666666666667
  0.2291666666666669  0.3541666666666670  0.8125000000000000
  0.1666666666666670  0.5833333333333329  0.0833333333333330
  0.2291666666666669  0.6458333333333328  0.5208333333333329
  0.3124999999999999  0.5208333333333329  0.5625000000000000
  0.2291666666666669  0.6458333333333328  0.6875000000000000
  0.1874999999999999  0.5208333333333329  0.9375000000000000
  0.2291666666666669  0.7291666666666670  0.2708333333333330
  0.2708333333333330  0.8125000000000000  0.4791666666666670
  0.1666666666666670  0.6666666666666667  0.6666666666666667
  0.2083333333333330  0.8749999999999998  0.2083333333333330
  0.1874999999999999  0.8541666666666669  0.2708333333333330
  0.1874999999999999  0.9791666666666669  0.5625000000000000
  0.2499999999999999  0.8333333333333329  0.7499999999999998
  0.2708333333333330  0.9791666666666669  0.8125000000000000
  0.4166666666666670  0.0833333333333330  0.1666666666666670
  0.4374999999999999  0.0625000000000000  0.3958333333333330
  0.3749999999999999  0.0416666666666670  0.5416666666666670
  0.3958333333333330  0.1041666666666670  0.8958333333333330
  0.4583333333333330  0.2083333333333330  0.1250000000000000
  0.3541666666666670  0.1874999999999999  0.2708333333333330
  0.3541666666666670  0.2708333333333330  0.5208333333333329
  0.4374999999999999  0.3124999999999999  0.8125000000000000
  0.4791666666666670  0.7708333333333328  0.3124999999999999
  0.3541666666666670  0.9375000000000000  0.0208333333333330
  0.3541666666666670  0.8541666666666669  0.1041666666666670
  0.3749999999999999  0.8749999999999998  0.2083333333333330
  0.4166666666666670  0.9166666666666667  0.8333333333333329
  0.3958333333333330  0.9791666666666669  0.8541666666666669
  0.5625000000000000  0.0625000000000000  0.1041666666666670
  0.5208333333333329  0.0208333333333330  0.1041666666666670
  0.6458333333333328  0.1041666666666670  0.1458333333333330
  0.6249999999999999  0.0416666666666670  0.2916666666666670
  0.4999999999999999  0.0833333333333330  0.4166666666666670
  0.5208333333333329  0.1458333333333330  0.7291666666666670
  0.6041666666666669  0.0625000000000000  0.7291666666666670
  0.5208333333333329  0.1874999999999999  0.1041666666666670
  0.5208333333333329  0.1874999999999999  0.2708333333333330
  0.4999999999999999  0.1666666666666670  0.6666666666666667
  0.6249999999999999  0.2083333333333330  0.7916666666666667
  0.6458333333333328  0.2291666666666669  0.6875000000000000
  0.5625000000000000  0.3124999999999999  0.8541666666666669
  0.5416666666666670  0.7083333333333329  0.0416666666666670
  0.5625000000000000  0.8125000000000000  0.0208333333333330
  0.5625000000000000  0.7708333333333328  0.0625000000000000
  0.5625000000000000  0.6875000000000000  0.4791666666666670
  0.5833333333333329  0.7499999999999998  0.6666666666666667
  0.6041666666666669  0.6875000000000000  0.6875000000000000
  0.6249999999999999  0.8749999999999998  0.1250000000000000
  0.6041666666666669  0.9791666666666669  0.4791666666666670
  0.6041666666666669  0.9791666666666669  0.6458333333333328
  0.5833333333333329  0.9166666666666667  0.8333333333333329
  0.5208333333333329  0.8541666666666669  0.9375000000000000
  0.7708333333333328  0.0208333333333330  0.0208333333333330
  0.7083333333333329  0.0416666666666670  0.8749999999999998
  0.7083333333333329  0.1250000000000000  0.9583333333333328
  0.6666666666666667  0.2499999999999999  0.0833333333333330
  0.7708333333333328  0.1874999999999999  0.0208333333333330
  0.7708333333333328  0.2708333333333330  0.2708333333333330
  0.8125000000000000  0.2708333333333330  0.3124999999999999
  0.8125000000000000  0.2291666666666669  0.6875000000000000
  0.7499999999999998  0.2499999999999999  0.8333333333333329
  0.6875000000000000  0.2708333333333330  0.8541666666666669
  0.7291666666666670  0.2291666666666669  0.9375000000000000
  0.7708333333333328  0.4791666666666670  0.4791666666666670
  0.7916666666666667  0.3749999999999999  0.9583333333333328
  0.7499999999999998  0.5833333333333329  0.0000000000000000
  0.7291666666666670  0.8125000000000000  0.5208333333333329
  0.7291666666666670  0.8125000000000000  0.6875000000000000
  0.7708333333333328  0.8125000000000000  0.9791666666666669
  0.9583333333333328  0.1250000000000000  0.5416666666666670
  0.8541666666666669  0.0208333333333330  0.9375000000000000
  0.8749999999999998  0.2083333333333330  0.0416666666666670
  0.8541666666666669  0.2708333333333330  0.5208333333333329
  0.9375000000000000  0.2708333333333330  0.6041666666666669
  0.9166666666666667  0.1666666666666670  0.9166666666666667
  0.9166666666666667  0.3333333333333330  0.2499999999999999
  0.9375000000000000  0.4374999999999999  0.2708333333333330
  0.8333333333333329  0.4166666666666670  0.9166666666666667
  0.9166666666666667  0.4999999999999999  0.2499999999999999
  0.9166666666666667  0.4999999999999999  0.5833333333333329
  0.8541666666666669  0.5625000000000000  0.6458333333333328
  0.9375000000000000  0.5625000000000000  0.7291666666666670
  0.8749999999999998  0.5416666666666670  0.8749999999999998
  0.9791666666666669  0.9375000000000000  0.3124999999999999
  0.1250000000000000  0.0416666666666670  0.1250000000000000
  0.1041666666666670  0.0208333333333330  0.0208333333333330
  0.0208333333333330  0.1458333333333330  0.2291666666666669
  0.1041666666666670  0.1041666666666670  0.2708333333333330
  0.0416666666666670  0.2916666666666670  0.4583333333333330
  0.0000000000000000  0.3333333333333330  0.0000000000000000
  0.0208333333333330  0.3958333333333330  0.1458333333333330
  0.1458333333333330  0.3541666666666670  0.3958333333333330
  0.0208333333333330  0.3958333333333330  0.4791666666666670
  0.0000000000000000  0.3333333333333330  0.6666666666666667
  0.0625000000000000  0.5208333333333329  0.1458333333333330
  0.1250000000000000  0.6249999999999999  0.7083333333333329
  0.0000000000000000  0.5833333333333329  0.7499999999999998
  0.1041666666666670  0.5208333333333329  0.6875000000000000
  0.1041666666666670  0.7291666666666670  0.2291666666666669
  0.1250000000000000  0.7083333333333329  0.4583333333333330
  0.0625000000000000  0.9375000000000000  0.2291666666666669
  0.0416666666666670  0.9583333333333328  0.6249999999999999
  0.0000000000000000  0.9166666666666667  0.9166666666666667
  0.0625000000000000  0.9375000000000000  0.8958333333333330
  0.2916666666666670  0.1250000000000000  0.2083333333333330
  0.2291666666666669  0.1458333333333330  0.8541666666666669
  0.3124999999999999  0.2291666666666669  0.5208333333333329
  0.3124999999999999  0.2708333333333330  0.6458333333333328
  0.1666666666666670  0.4166666666666670  0.0833333333333330
  0.2083333333333330  0.3749999999999999  0.2083333333333330
  0.2083333333333330  0.4583333333333330  0.2916666666666670
  0.2291666666666669  0.3958333333333330  0.4374999999999999
  0.2708333333333330  0.3958333333333330  0.5625000000000000
  0.2708333333333330  0.5625000000000000  0.0625000000000000
  0.2708333333333330  0.5625000000000000  0.2291666666666669
  0.2916666666666670  0.5416666666666670  0.4583333333333330
  0.2291666666666669  0.6041666666666669  0.5625000000000000
  0.2708333333333330  0.7708333333333328  0.1041666666666670
  0.3124999999999999  0.8125000000000000  0.4374999999999999
  0.1666666666666670  0.7499999999999998  0.7499999999999998
  0.1666666666666670  0.8333333333333329  0.0000000000000000
  0.1874999999999999  0.8541666666666669  0.4374999999999999
  0.3124999999999999  0.9375000000000000  0.8125000000000000
  0.4374999999999999  0.1458333333333330  0.3124999999999999
  0.3541666666666670  0.0208333333333330  0.4374999999999999
  0.4374999999999999  0.2291666666666669  0.0625000000000000
  0.4166666666666670  0.1666666666666670  0.4166666666666670
  0.3541666666666670  0.2708333333333330  0.6875000000000000
  0.4374999999999999  0.3124999999999999  0.9791666666666669
  0.3333333333333330  0.6666666666666667  0.3333333333333330
  0.4791666666666670  0.6875000000000000  0.5625000000000000
  0.3958333333333330  0.9375000000000000  0.2291666666666669
  0.4791666666666670  0.8958333333333330  0.8541666666666669
  0.5208333333333329  0.0208333333333330  0.2708333333333330
  0.6458333333333328  0.0625000000000000  0.3541666666666670
  0.5833333333333329  0.1666666666666670  0.0833333333333330
  0.6041666666666669  0.7291666666666670  0.8958333333333330
  0.5416666666666670  0.8749999999999998  0.0416666666666670
  0.5416666666666670  0.9583333333333328  0.1250000000000000
  0.5625000000000000  0.8541666666666669  0.1458333333333330
  0.5208333333333329  0.8541666666666669  0.4374999999999999
  0.6041666666666669  0.8541666666666669  0.5208333333333329
  0.4999999999999999  0.8333333333333329  0.8333333333333329
  0.7916666666666667  0.0416666666666670  0.1250000000000000
  0.8125000000000000  0.1458333333333330  0.1041666666666670
  0.6666666666666667  0.0833333333333330  0.4166666666666670
  0.7708333333333328  0.0625000000000000  0.5625000000000000
  0.7291666666666670  0.0625000000000000  0.7708333333333328
  0.7916666666666667  0.2083333333333330  0.2916666666666670
  0.7499999999999998  0.2499999999999999  0.4999999999999999
  0.7083333333333329  0.2916666666666670  0.9583333333333328
  0.6875000000000000  0.1874999999999999  0.9375000000000000
  0.8125000000000000  0.3124999999999999  0.9375000000000000
  0.8125000000000000  0.2708333333333330  0.9791666666666669
  0.7708333333333328  0.3958333333333330  0.0625000000000000
  0.7083333333333329  0.4583333333333330  0.4583333333333330
  0.7499999999999998  0.4166666666666670  0.4999999999999999
  0.7499999999999998  0.3333333333333330  0.5833333333333329
  0.6666666666666667  0.4166666666666670  0.7499999999999998
  0.7708333333333328  0.3958333333333330  0.7291666666666670
  0.6875000000000000  0.3958333333333330  0.8125000000000000
  0.6875000000000000  0.3958333333333330  0.9791666666666669
  0.7291666666666670  0.5208333333333329  0.1458333333333330
  0.7291666666666670  0.5208333333333329  0.4791666666666670
  0.7708333333333328  0.6875000000000000  0.1874999999999999
  0.7083333333333329  0.7916666666666667  0.7916666666666667
  0.6875000000000000  0.7291666666666670  0.9791666666666669
  0.7291666666666670  0.9791666666666669  0.1874999999999999
  0.7708333333333328  0.8958333333333330  0.2291666666666669
  0.8125000000000000  0.8958333333333330  0.3541666666666670
  0.9583333333333328  0.0416666666666670  0.2916666666666670
  0.8541666666666669  0.0208333333333330  0.2708333333333330
  0.9583333333333328  0.2916666666666670  0.0416666666666670
  0.8958333333333330  0.3541666666666670  0.3124999999999999
  0.9375000000000000  0.4374999999999999  0.4374999999999999
  0.9375000000000000  0.4791666666666670  0.4791666666666670
  0.9791666666666669  0.3541666666666670  0.8958333333333330
  0.9166666666666667  0.5833333333333329  0.4999999999999999
  0.8958333333333330  0.6458333333333328  0.5208333333333329
  0.9375000000000000  0.6041666666666669  0.7708333333333328
  0.8541666666666669  0.5625000000000000  0.8125000000000000
  0.8541666666666669  0.8125000000000000  0.3958333333333330
  0.9583333333333328  0.9583333333333328  0.0416666666666670
  0.8541666666666669  0.9791666666666669  0.5625000000000000
  0.9166666666666667  0.8333333333333329  0.7499999999999998
  0.0000000000000000  0.0000000000000000  0.0000000000000000
  0.1458333333333330  0.0625000000000000  0.0208333333333330
  0.1041666666666670  0.1041666666666670  0.1041666666666670
  0.0208333333333330  0.0625000000000000  0.1458333333333330
  0.0416666666666670  0.0416666666666670  0.2083333333333330
  0.0625000000000000  0.1458333333333330  0.1874999999999999
  0.1041666666666670  0.0625000000000000  0.2291666666666669
  0.0208333333333330  0.1041666666666670  0.3541666666666670
  0.1041666666666670  0.0208333333333330  0.3541666666666670
  0.1458333333333330  0.0208333333333330  0.3958333333333330
  0.0416666666666670  0.1250000000000000  0.6249999999999999
  0.0208333333333330  0.0625000000000000  0.6458333333333328
  0.1041666666666670  0.1458333333333330  0.6458333333333328
  0.0000000000000000  0.0000000000000000  0.6666666666666667
  0.1041666666666670  0.1458333333333330  0.8125000000000000
  0.0833333333333330  0.0000000000000000  0.9166666666666667
  0.0833333333333330  0.2499999999999999  0.1666666666666670
  0.1250000000000000  0.2916666666666670  0.2083333333333330
  0.0625000000000000  0.3124999999999999  0.1874999999999999
  0.0208333333333330  0.2708333333333330  0.3541666666666670
  0.1458333333333330  0.1874999999999999  0.5625000000000000
  0.1041666666666670  0.2291666666666669  0.5625000000000000
  0.1458333333333330  0.2291666666666669  0.6875000000000000
  0.1458333333333330  0.1874999999999999  0.7291666666666670
  0.1250000000000000  0.2083333333333330  0.9583333333333328
  0.1458333333333330  0.2291666666666669  0.8541666666666669
  0.0625000000000000  0.2291666666666669  0.9375000000000000
  0.0833333333333330  0.4166666666666670  0.0000000000000000
  0.0625000000000000  0.4791666666666670  0.3541666666666670
  0.1041666666666670  0.3541666666666670  0.3541666666666670
  0.1041666666666670  0.3958333333333330  0.3958333333333330
  0.1041666666666670  0.4374999999999999  0.7708333333333328
  0.0416666666666670  0.5416666666666670  0.0416666666666670
  0.0000000000000000  0.5833333333333329  0.0833333333333330
  0.0208333333333330  0.6458333333333328  0.3958333333333330
  0.0416666666666670  0.6249999999999999  0.6249999999999999
  0.0625000000000000  0.6041666666666669  0.5625000000000000
  0.1041666666666670  0.6458333333333328  0.6458333333333328
  0.0416666666666670  0.6249999999999999  0.7916666666666667
  0.1250000000000000  0.7916666666666667  0.0416666666666670
  0.0625000000000000  0.8125000000000000  0.0208333333333330
  0.0416666666666670  0.7916666666666667  0.2916666666666670
  0.0625000000000000  0.8125000000000000  0.1874999999999999
  0.1458333333333330  0.8125000000000000  0.2708333333333330
  0.0625000000000000  0.7291666666666670  0.4374999999999999
  0.0625000000000000  0.7291666666666670  0.6041666666666669
  0.1458333333333330  0.6875000000000000  0.7291666666666670
  0.0208333333333330  0.8125000000000000  0.7291666666666670
  0.0625000000000000  0.7708333333333328  0.8958333333333330
  0.1041666666666670  0.7708333333333328  0.9375000000000000
  0.1041666666666670  0.8541666666666669  0.0208333333333330
  0.0625000000000000  0.8958333333333330  0.1041666666666670
  0.1041666666666670  0.9375000000000000  0.1041666666666670
  0.1458333333333330  0.9375000000000000  0.1458333333333330
  0.0208333333333330  0.8958333333333330  0.1458333333333330
  0.0833333333333330  0.9166666666666667  0.1666666666666670
  0.1458333333333330  0.8958333333333330  0.1874999999999999
  0.0000000000000000  0.9166666666666667  0.7499999999999998
  0.0625000000000000  0.8958333333333330  0.7708333333333328
  0.2291666666666669  0.1458333333333330  0.0208333333333330
  0.1874999999999999  0.1041666666666670  0.0208333333333330
  0.2499999999999999  0.0833333333333330  0.1666666666666670
  0.2291666666666669  0.0208333333333330  0.9791666666666669
  0.3124999999999999  0.2291666666666669  0.0208333333333330
  0.1874999999999999  0.2708333333333330  0.1874999999999999
  0.2708333333333330  0.2708333333333330  0.6041666666666669
  0.3124999999999999  0.3958333333333330  0.0208333333333330
  0.1874999999999999  0.3541666666666670  0.1041666666666670
  0.2291666666666669  0.4374999999999999  0.2291666666666669
  0.2708333333333330  0.4791666666666670  0.3124999999999999
  0.2708333333333330  0.4791666666666670  0.4791666666666670
  0.1666666666666670  0.3333333333333330  0.8333333333333329
  0.2708333333333330  0.6041666666666669  0.2708333333333330
  0.1666666666666670  0.7499999999999998  0.2499999999999999
  0.1874999999999999  0.7708333333333328  0.3541666666666670
  0.2708333333333330  0.7708333333333328  0.7708333333333328
  0.3124999999999999  0.8958333333333330  0.0208333333333330
  0.2083333333333330  0.9583333333333328  0.4583333333333330
  0.1874999999999999  0.9375000000000000  0.3541666666666670
  0.2291666666666669  0.9791666666666669  0.8541666666666669
  0.3958333333333330  0.0625000000000000  0.4374999999999999
  0.4374999999999999  0.0208333333333330  0.6875000000000000
  0.4374999999999999  0.1041666666666670  0.9375000000000000
  0.4791666666666670  0.1041666666666670  0.9791666666666669
  0.3958333333333330  0.2291666666666669  0.1041666666666670
  0.3541666666666670  0.7708333333333328  0.0208333333333330
  0.4374999999999999  0.7291666666666670  0.0625000000000000
  0.4166666666666670  0.6666666666666667  0.4166666666666670
  0.3958333333333330  0.8125000000000000  0.6875000000000000
  0.3541666666666670  0.8125000000000000  0.7291666666666670
  0.3541666666666670  0.6875000000000000  0.7708333333333328
  0.4791666666666670  0.8125000000000000  0.7708333333333328
  0.4166666666666670  0.6666666666666667  0.9166666666666667
  0.4791666666666670  0.8958333333333330  0.0208333333333330
  0.3541666666666670  0.9791666666666669  0.2291666666666669
  0.3541666666666670  0.8541666666666669  0.4374999999999999
  0.4791666666666670  0.9375000000000000  0.9791666666666669
  0.5625000000000000  0.1041666666666670  0.0625000000000000
  0.6458333333333328  0.0208333333333330  0.3958333333333330
  0.4999999999999999  0.0833333333333330  0.5833333333333329
  0.6458333333333328  0.0208333333333330  0.7291666666666670
  0.4999999999999999  0.0833333333333330  0.9166666666666667
  0.5208333333333329  0.1041666666666670  0.8541666666666669
  0.6458333333333328  0.1874999999999999  0.0625000000000000
  0.5625000000000000  0.1874999999999999  0.3124999999999999
  0.5416666666666670  0.2916666666666670  0.6249999999999999
  0.6458333333333328  0.3124999999999999  0.9375000000000000
  0.5625000000000000  0.8125000000000000  0.1874999999999999
  0.5208333333333329  0.7708333333333328  0.1874999999999999
  0.6041666666666669  0.6875000000000000  0.1874999999999999
  0.6249999999999999  0.7916666666666667  0.8749999999999998
  0.6041666666666669  0.7708333333333328  0.9375000000000000
  0.4999999999999999  0.8333333333333329  0.1666666666666670